254,623
521,487
575,512
657,423
663,524
888,438
1020,745
1041,766
1137,554
852,351
707,393
563,388
888,438
880,470
947,599
880,470
523,188
607,178
764,150
723,140
630,81
491,216
254,623
464,833
945,42
1162,161
523,188
491,216
406,131
852,461
852,351
740,415
602,909
464,833
439,582
598,662
723,672
839,624
1006,457
1071,406
852,461
598,662
601,446
657,423
787,352
764,150
681,-14
810,7
681,-14
630,81
723,140
804,237
852,351
787,352
707,393
